c 
c G(k,n,p) graph
c graph gen seed     : 7738
c number of vertices : 70
c max number of edges: 1600
c number of classes  : 2
c edge density       : 0.100000
c edge probability   : 0.200000
c data structure     : sparse
c
c           Graph Stats
c number of vertices  : 70
c nonisolated vertices: 70
c number of edges     : 237
c edge density        : 0.098137
c max degree          : 11
c avg degree          : 6.77
c min degree          : 2
p col 70 237
e 1 43
e 1 19
e 1 18
e 1 17
e 1 14
e 2 63
e 2 60
e 2 56
e 2 55
e 2 31
e 2 24
e 2 8
e 2 5
e 2 4
e 3 60
e 3 34
e 3 27
e 3 22
e 3 4
e 4 69
e 4 67
e 4 64
e 4 44
e 4 37
e 4 25
e 4 18
e 4 9
e 5 67
e 5 59
e 5 51
e 5 39
e 5 20
e 5 9
e 5 7
e 6 69
e 6 51
e 6 47
e 6 19
e 7 68
e 7 58
e 7 57
e 7 40
e 7 27
e 7 24
e 7 10
e 8 69
e 8 65
e 8 52
e 8 37
e 8 25
e 8 21
e 8 12
e 9 58
e 9 57
e 9 53
e 9 36
e 9 32
e 9 30
e 9 27
e 9 22
e 10 65
e 10 52
e 10 51
e 10 35
e 10 25
e 10 21
e 10 19
e 11 65
e 11 47
e 11 35
e 11 20
e 12 68
e 12 61
e 12 53
e 12 29
e 12 23
e 12 13
e 13 64
e 13 51
e 13 44
e 13 42
e 13 39
e 13 38
e 13 33
e 13 26
e 13 14
e 14 68
e 14 57
e 14 48
e 14 32
e 14 30
e 14 28
e 14 16
e 15 48
e 15 46
e 15 34
e 15 31
e 16 37
e 17 70
e 17 68
e 17 56
e 17 48
e 17 30
e 18 63
e 18 53
e 18 50
e 18 46
e 18 40
e 18 27
e 19 58
e 19 57
e 19 53
e 19 48
e 19 34
e 19 32
e 20 61
e 20 46
e 21 58
e 21 30
e 22 52
e 22 51
e 22 39
e 23 69
e 23 67
e 23 49
e 23 45
e 23 44
e 23 35
e 24 65
e 24 47
e 24 38
e 24 33
e 25 61
e 25 60
e 26 55
e 26 36
e 26 30
e 27 59
e 27 52
e 27 43
e 27 39
e 28 67
e 29 65
e 29 62
e 29 45
e 29 43
e 29 41
e 30 44
e 30 38
e 31 54
e 31 51
e 32 69
e 32 66
e 32 62
e 32 52
e 32 44
e 32 43
e 32 35
e 33 70
e 33 50
e 33 48
e 33 34
e 34 65
e 34 47
e 34 45
e 34 43
e 34 41
e 34 35
e 35 68
e 35 46
e 35 40
e 36 49
e 36 44
e 36 41
e 37 70
e 38 60
e 38 56
e 38 53
e 38 46
e 39 68
e 39 60
e 39 57
e 39 56
e 40 65
e 40 41
e 41 57
e 42 70
e 42 53
e 43 70
e 43 68
e 43 50
e 43 46
e 44 70
e 44 60
e 44 48
e 45 58
e 45 56
e 46 59
e 47 70
e 47 63
e 47 61
e 47 56
e 48 54
e 48 51
e 49 55
e 50 67
e 50 66
e 50 52
e 51 63
e 51 55
e 51 53
e 52 70
e 52 61
e 52 60
e 52 58
e 52 56
e 53 69
e 53 66
e 55 66
e 55 62
e 56 64
e 57 64
e 57 62
e 58 65
e 58 64
e 58 62
e 58 59
e 59 68
e 60 69
e 61 64
e 62 70
e 62 68
e 63 67
e 64 70
e 64 68
e 66 70
e 66 68
